(set-option :produce-models true)
(set-logic QF_UF)
(declare-fun p2() Bool)
(declare-fun p5() Bool)
(declare-fun p11() Bool)
(declare-fun p14() Bool)
(declare-fun p4() Bool)
(declare-fun p7() Bool)
(declare-fun p0() Bool)
(declare-fun p1() Bool)
(declare-fun p9() Bool)
(declare-fun p10() Bool)
(declare-fun p12() Bool)
(declare-fun p8() Bool)
(declare-fun p3() Bool)
(declare-fun p13() Bool)
(declare-fun p6() Bool)
(assert
(and (or p2 p5 p11) (or p14 p4 (not p7)) (or (not p2) p0 (not p1)) (or p11 p9 (not p11)) (or p5 p0 (not p11)) (or (not p10) p7 p11) (or p14 p12 p14) (or p7 (not p14) (not p4)) (or p0 p12 p7) (or (not p7) p8 p11) (or (not p0) p3 (not p13)) (or (not p0) p4 (not p10)) (or p1 p12 (not p4)) (or (not p0) (not p5) p5) (or p1 p12 (not p11)) (or (not p3) (not p8) (not p8)) (or (not p1) p4 p11) (or (not p0) p7 (not p0)) (or p7 p11 p6) (or (not p2) p5 (not p9)) (or p14 p1 p10) (or (not p14) p14 (not p6)) (or (not p10) (not p7) p1) (or (not p10) p3 p4) (or (not p7) p7 p6) (or (not p2) (not p8) (not p13)) (or p0 p6 p7) (or p5 (not p0) p4) (or p5 p3 p13) (or p1 p9 p13) (or p5 p0 (not p14)) (or p7 (not p7) (not p8)) (or (not p1) p2 (not p10)) (or p4 p5 p4) (or p1 p3 (not p7)) (or p11 p9 p6) (or (not p4) p10 p7) (or p2 p6 (not p3)) (or (not p6) (not p7) (not p2)) (or (not p7) (not p2) (not p8)) (or p12 p14 p9) (or (not p7) (not p14) p10) (or p3 p10 p0) (or p9 (not p10) (not p8)) (or (not p13) p2 (not p13)) (or (not p11) (not p3) (not p12)) (or p3 (not p4) p14) (or (not p13) (not p8) (not p12)) (or p4 (not p4) p14) (or (not p14) (not p5) p12) (or p2 (not p13) p6) (or (not p7) (not p6) p0) (or (not p9) (not p6) (not p11)) (or p11 p1 p4) (or p11 p7 (not p11)) (or (not p9) p13 p6) (or p1 (not p1) p0) (or p6 (not p14) p4) (or (not p13) p2 p1) (or (not p6) (not p4) p5) (or p0 (not p2) (not p11)) (or p7 p1 (not p11)) (or (not p6) (not p1) p14) (or (not p5) (not p6) (not p6)) (or (not p10) (not p3) p4) (or p11 (not p13) p6) (or p0 p4 (not p13)) (or p12 (not p11) p11) (or p10 p10 p6))
)
(check-sat)
(get-model)
